w = 11;

n = 7;

r2 = array1d(1..2, [3, 3]);

r3 = array1d(1..2, [3, 4]);

r4 = array1d(1..2, [3, 5]);

r5 = array1d(1..2, [3, 6]);

r6 = array1d(1..2, [5, 3]);

r7 = array1d(1..2, [5, 4]);

r8 = array1d(1..2, [8, 4]);

